p cnf 30 45
28 16 -22 0
24 29 25 0
-17 13 21 0
-18 -11 -9 0
20 11 4 0
-25 -17 -2 0
-13 -16 -15 0
-18 22 5 0
-22 28 -3 0
12 27 -10 0
22 11 -14 0
14 -23 -1 0
-2 -22 -7 0
28 -26 -3 0
-28 20 -11 0
-30 -24 20 0
25 -4 -30 0
11 6 27 0
-30 -4 10 0
28 5 -21 0
15 16 18 0
29 15 -4 0
-1 23 3 0
16 4 14 0
-5 21 -2 0
-24 25 4 0
24 1 15 0
17 15 4 0
19 12 21 0
-1 24 19 0
-15 -19 -25 0
-5 25 -10 0
-27 -13 11 0
16 11 -17 0
-26 3 -2 0
-28 -2 -25 0
21 -19 25 0
3 13 16 0
-9 7 -10 0
-7 16 4 0
22 8 13 0
8 5 19 0
18 5 26 0
-22 1 27 0
-20 -23 13 0
